&CONTROL
  calculation = 'scf'
  restart_mode = 'from_scratch'
  pseudo_dir = '../pseudo'
  outdir = './tmp'
  tprnfor = .true.
/

&SYSTEM
  ibrav = 0
  nat = 2
  ntyp = 1
  ecutwfc = 30.0
/

&ELECTRONS
  electron_maxstep = 150
  mixing_beta = 0.1
/

ATOMIC_SPECIES
   Si  28.0  Si_ONCV_PBE-1.0.upf

ATOMIC_POSITIONS crystal
Si       0.0000000000       0.0000000000       0.0000000000
Si       0.25               0.25               0.25

K_POINTS automatic
3 3 3 0 0 0

CELL_PARAMETERS bohr
     -5.1315500000       0.0000000000       5.1315500000
      0.0000000000       5.1315500000       5.1315500000
     -5.1315500000       5.1315500000       0.0000000000


