acell 1.0 1.0 1.0
rprim
     -5.1315500000       0.0000000000       5.1315500000
      0.0000000000       5.1315500000       5.1315500000
     -5.1315500000       5.1315500000       0.0000000000

natom 2
ntypat 1
znucl 14
typat
  1 1

xcart
      0.0000000000       0.0000000000       0.0000000000
     -2.5657750000       2.5657750000       2.5657750000

ecut 15.000000

nband 4
occopt 1
ngkpt 3 3 3

chksymbreak 0
chkprim 0

nshiftk 1
shiftk  0.0  0.0  0.0

nstep 100
toldfe 1.0d-6
diemac 12.0
ixc -101130

