acell    3*6.831284262456  

rprim    0.000000000000000   0.500000000000000   0.500000000000000 
         0.500000000000000   0.000000000000000   0.500000000000000 
         0.500000000000000   0.500000000000000   0.000000000000000 
       
natom    1  
ntypat   1  
typat    1  
znucl    29  
xred     0.000000000000000   0.000000000000000   0.000000000000000 

occopt 3
tsmear 0.001

ngkpt   15 15 15
nshiftk 1
shiftk  0.0 0.0 0.0

toldfe  1.0d-6

ecut 15.0
nstep 100
