#************************************************************************************
#*                   Generated by cif2cell 1.2.10 2019-06-03 0:04                   *
#*  T. Bjorkman, Comp. Phys. Commun. 182, 1183-1186 (2011). Please cite generously. *
#*                                                                                  *
#*                                         ()                                       *
#*                 Wyckoff R W G, Crystal Structures 1, 7-83 (1963)                 *
#************************************************************************************

&SYSTEM
  ibrav = 0
  A =    3.61496
  nat = 1
  ntyp = 1
/
CELL_PARAMETERS {alat}
  0.500000000000000   0.500000000000000   0.000000000000000 
  0.500000000000000   0.000000000000000   0.500000000000000 
  0.000000000000000   0.500000000000000   0.500000000000000 
ATOMIC_SPECIES
  Cu   63.54600  Cu_PSEUDO
ATOMIC_POSITIONS {crystal}
Cu   0.000000000000000   0.000000000000000   0.000000000000000 

# k-space resolution ~0.2/A.
K_POINTS automatic
15 15 15  0 0 0
