ndtset 2

# Dataset 1 : usual self-consistent calculation
kptopt1  1
nshiftk1 1
shiftk1  0.0 0.0 0.0
ngkpt1   4 4 4  
prtden1  1
toldfe1  1.0d-6

# Dataset 2 : the band structure
iscf2    -2
getden2  -1
kptopt2  -3
nband2   8
ndivk2   10 12 17
kptbounds2  0.5  0.0  0.0 # L point
            0.0  0.0  0.0 # Gamma point
            0.0  0.5  0.5 # X point
            1.0  1.0  1.0 # Gamma point in another cell.
tolwfr2  1.0d-12
enunit2  1             # Will output the eigenenergies in eV 

acell 3*10.216
rprim  0.0  0.5  0.5
       0.5  0.0  0.5   
       0.5  0.5  0.0

ntypat 1
znucl 14                  

natom 2
typat 1 1
xred
   0.0  0.0  0.0
   1/4  1/4  1/4

ecut 15.0
nstep 100