&CONTROL
  calculation = 'scf'
  restart_mode = 'from_scratch'
  pseudo_dir = '../pseudo'
  outdir = './tmp'
  tprnfor = .true.
/

&SYSTEM
  ibrav = 0
	A = 3.61496
  nat = 1
  ntyp = 1
  ecutwfc = 60.0
  occupations = 'smearing'
  smearing = 'fd'
  degauss = 0.002
/

&ELECTRONS
  electron_maxstep = 150
  mixing_beta = 0.1
/

ATOMIC_SPECIES
   Cu  63.5  Cu_ONCV_PBE-1.0.upf

ATOMIC_POSITIONS crystal
Cu       0.0000000000       0.0000000000       0.0000000000

K_POINTS automatic
15 15 15 0 0 0

CELL_PARAMETERS {alat}
  0.500000000000000   0.500000000000000   0.000000000000000 
  0.500000000000000   0.000000000000000   0.500000000000000 
  0.000000000000000   0.500000000000000   0.500000000000000 

