&CONTROL
  calculation = 'bands'
  pseudo_dir = '/home/efefer/pseudo'
  outdir = './tmp'
/

&SYSTEM
  ibrav = 2
  celldm(1) = 10.20
  nat = 2
  ntyp = 1
  ecutwfc = 18.0
  nbnd = 8
/

&ELECTRONS
  mixing_beta = 0.7
  conv_thr =  1.0d-8
/

ATOMIC_SPECIES
Si  28.086  Si.pz-vbc.UPF

ATOMIC_POSITIONS crystal
Si 0.00 0.00 0.00
Si 0.25 0.25 0.25

K_POINTS crystal
60
0.50000000 0.50000000 0.50000000 0.00000000
0.47222222 0.47222222 0.47222222 0.10724385
0.44444444 0.44444444 0.44444444 0.21448770
0.41666667 0.41666667 0.41666667 0.32173156
0.38888889 0.38888889 0.38888889 0.42897541
0.36111111 0.36111111 0.36111111 0.53621926
0.33333333 0.33333333 0.33333333 0.64346311
0.30555556 0.30555556 0.30555556 0.75070697
0.27777778 0.27777778 0.27777778 0.85795082
0.25000000 0.25000000 0.25000000 0.96519467
0.22222222 0.22222222 0.22222222 1.07243852
0.19444444 0.19444444 0.19444444 1.17968237
0.16666667 0.16666667 0.16666667 1.28692623
0.13888889 0.13888889 0.13888889 1.39417008
0.11111111 0.11111111 0.11111111 1.50141393
0.08333333 0.08333333 0.08333333 1.60865778
0.05555556 0.05555556 0.05555556 1.71590164
0.02777778 0.02777778 0.02777778 1.82314549
0.00000000 0.00000000 0.00000000 1.93038934
0.03333333 0.00000000 0.03333333 2.04013878
0.06666667 0.00000000 0.06666667 2.14988822
0.10000000 0.00000000 0.10000000 2.25963765
0.13333333 0.00000000 0.13333333 2.36938709
0.16666667 0.00000000 0.16666667 2.47913653
0.20000000 0.00000000 0.20000000 2.58888597
0.23333333 0.00000000 0.23333333 2.69863540
0.26666667 0.00000000 0.26666667 2.80838484
0.30000000 0.00000000 0.30000000 2.91813428
0.33333333 0.00000000 0.33333333 3.02788371
0.36666667 0.00000000 0.36666667 3.13763315
0.40000000 0.00000000 0.40000000 3.24738259
0.43333333 0.00000000 0.43333333 3.35713203
0.46666667 0.00000000 0.46666667 3.46688146
0.50000000 0.00000000 0.50000000 3.57663090
0.51923077 0.03846154 0.51923077 3.67674384
0.53846154 0.07692308 0.53846154 3.77685678
0.55769231 0.11538462 0.55769231 3.87696972
0.57692308 0.15384615 0.57692308 3.97708266
0.59615385 0.19230769 0.59615385 4.07719561
0.61538462 0.23076923 0.61538462 4.17730855
0.63461538 0.26923077 0.63461538 4.27742149
0.65384615 0.30769231 0.65384615 4.37753443
0.67307692 0.34615385 0.67307692 4.47764737
0.69230769 0.38461538 0.69230769 4.57776031
0.71153846 0.42307692 0.71153846 4.67787325
0.73076923 0.46153846 0.73076923 4.77798619
0.75000000 0.50000000 0.75000000 4.87809913
0.76923077 0.53846154 0.76923077 4.97821207
0.78846154 0.57692308 0.78846154 5.07832501
0.80769231 0.61538462 0.80769231 5.17843795
0.82692308 0.65384615 0.82692308 5.27855089
0.84615385 0.69230769 0.84615385 5.37866383
0.86538462 0.73076923 0.86538462 5.47877677
0.88461538 0.76923077 0.88461538 5.57888971
0.90384615 0.80769231 0.90384615 5.67900266
0.92307692 0.84615385 0.92307692 5.77911560
0.94230769 0.88461538 0.94230769 5.87922854
0.96153846 0.92307692 0.96153846 5.97934148
0.98076923 0.96153846 0.98076923 6.07945442
1.00000000 1.00000000 1.00000000 6.17956736