&CONTROL
  calculation = 'bands'
  pseudo_dir = '/home/efefer/pseudo'
  outdir = './tmp'
/

&SYSTEM
  ibrav = 2
  celldm(1) = 10.20
  nat = 2
  ntyp = 1
  ecutwfc = 18.0
  nbnd = 8
/

&ELECTRONS
  mixing_beta = 0.7
  conv_thr =  1.0d-8
/

ATOMIC_SPECIES
Si  28.086  Si.pz-vbc.UPF

ATOMIC_POSITIONS crystal
Si 0.00 0.00 0.00
Si 0.25 0.25 0.25

K_POINTS crystal
 60
0.50000000 0.25000000 0.75000000 0.00000000
0.50000000 0.28125000 0.71875000 0.15594042
0.50000000 0.31250000 0.68750000 0.31188083
0.50000000 0.34375000 0.65625000 0.46782125
0.50000000 0.37500000 0.62500000 0.62376166
0.50000000 0.40625000 0.59375000 0.77970208
0.50000000 0.43750000 0.56250000 0.93564249
0.50000000 0.46875000 0.53125000 1.09158291
0.50000000 0.50000000 0.50000000 1.24752332
0.47727273 0.47727273 0.47727273 1.38050976
0.45454545 0.45454545 0.45454545 1.51349619
0.43181818 0.43181818 0.43181818 1.64648262
0.40909091 0.40909091 0.40909091 1.77946905
0.38636364 0.38636364 0.38636364 1.91245549
0.36363636 0.36363636 0.36363636 2.04544192
0.34090909 0.34090909 0.34090909 2.17842835
0.31818182 0.31818182 0.31818182 2.31141479
0.29545455 0.29545455 0.29545455 2.44440122
0.27272727 0.27272727 0.27272727 2.57738765
0.25000000 0.25000000 0.25000000 2.71037409
0.22727273 0.22727273 0.22727273 2.84336052
0.20454545 0.20454545 0.20454545 2.97634695
0.18181818 0.18181818 0.18181818 3.10933339
0.15909091 0.15909091 0.15909091 3.24231982
0.13636364 0.13636364 0.13636364 3.37530625
0.11363636 0.11363636 0.11363636 3.50829268
0.09090909 0.09090909 0.09090909 3.64127912
0.06818182 0.06818182 0.06818182 3.77426555
0.04545455 0.04545455 0.04545455 3.90725198
0.02272727 0.02272727 0.02272727 4.04023842
0.00000000 0.00000000 0.00000000 4.17322485
0.02631579 0.00000000 0.02631579 4.30454309
0.05263158 0.00000000 0.05263158 4.43586134
0.07894737 0.00000000 0.07894737 4.56717958
0.10526316 0.00000000 0.10526316 4.69849783
0.13157895 0.00000000 0.13157895 4.82981607
0.15789474 0.00000000 0.15789474 4.96113432
0.18421053 0.00000000 0.18421053 5.09245256
0.21052632 0.00000000 0.21052632 5.22377081
0.23684211 0.00000000 0.23684211 5.35508905
0.26315789 0.00000000 0.26315789 5.48640729
0.28947368 0.00000000 0.28947368 5.61772554
0.31578947 0.00000000 0.31578947 5.74904378
0.34210526 0.00000000 0.34210526 5.88036203
0.36842105 0.00000000 0.36842105 6.01168027
0.39473684 0.00000000 0.39473684 6.14299852
0.42105263 0.00000000 0.42105263 6.27431676
0.44736842 0.00000000 0.44736842 6.40563501
0.47368421 0.00000000 0.47368421 6.53695325
0.50000000 0.00000000 0.50000000 6.66827150
0.50000000 0.04166667 0.54166667 6.81529353
0.50000000 0.08333333 0.58333333 6.96231556
0.50000000 0.12500000 0.62500000 7.10933760
0.50000000 0.16666667 0.66666667 7.25635963
0.50000000 0.20833333 0.70833333 7.40338166
0.50000000 0.25000000 0.75000000 7.55040370
0.46875000 0.28125000 0.75000000 7.66067022
0.43750000 0.31250000 0.75000000 7.77093675
0.40625000 0.34375000 0.75000000 7.88120327
0.37500000 0.37500000 0.75000000 7.99146980
